p cnf 67 188
c t mc
3 -1 0
3 2 0
1 -2 -3 0
-6 4 0
-6 -5 0
-4 5 6 0
3 -6 -7 0
-3 6 -7 0
3 6 7 0
-3 -6 7 0
-9 -10 -11 0
9 10 -11 0
-9 10 11 0
9 -10 11 0
-12 -8 0
-12 11 0
8 -11 12 0
12 -13 -14 0
-12 13 -14 0
12 13 14 0
-12 -13 14 0
-15 -16 -17 0
15 16 -17 0
-15 16 17 0
15 -16 17 0
8 -13 -18 0
-8 13 -18 0
8 13 18 0
-8 -13 18 0
-19 17 0
-19 18 0
-17 -18 19 0
-14 -19 -20 0
14 19 -20 0
-14 19 20 0
14 -19 20 0
-22 8 0
-22 -21 0
-8 21 22 0
23 -20 0
23 22 0
20 -22 -23 0
-25 24 0
-25 -11 0
-24 11 25 0
28 26 0
28 27 0
-26 -27 -28 0
-29 25 0
-29 -28 0
-25 28 29 0
-23 29 -30 0
23 -29 -30 0
-23 -29 30 0
23 29 30 0
-31 -7 0
-31 -30 0
7 30 31 0
33 32 0
33 12 0
-32 -12 -33 0
35 9 0
35 18 0
-9 -18 -35 0
36 34 0
36 35 0
-34 -35 -36 0
-36 37 -38 0
36 -37 -38 0
-36 -37 38 0
36 37 38 0
39 -38 0
39 18 0
38 -18 -39 0
40 -33 0
40 39 0
33 -39 -40 0
41 21 0
41 16 0
-21 -16 -41 0
-42 -40 0
-42 41 0
40 -41 42 0
43 -31 0
43 42 0
31 -42 -43 0
-9 -18 -44 0
9 18 -44 0
-9 18 44 0
9 -18 44 0
45 -44 0
45 8 0
44 -8 -45 0
46 45 0
46 -10 0
-45 10 -46 0
-48 -47 0
-48 10 0
47 -10 48 0
-49 -48 -50 0
49 48 -50 0
-49 48 50 0
49 -48 50 0
51 -50 0
51 17 0
50 -17 -51 0
52 -48 0
52 51 0
48 -51 -52 0
53 46 0
53 -52 0
-46 52 -53 0
-54 -18 -55 0
54 18 -55 0
-54 18 55 0
54 -18 55 0
-56 -6 0
-56 51 0
6 -51 56 0
-57 -4 0
-57 -54 0
4 54 57 0
-56 57 -58 0
56 -57 -58 0
-56 -57 58 0
56 57 58 0
59 -27 0
59 -13 0
27 13 -59 0
58 59 -60 0
-58 -59 -60 0
58 -59 60 0
-58 59 60 0
61 55 0
61 60 0
-55 -60 -61 0
18 -6 -62 0
-18 6 -62 0
18 6 62 0
-18 -6 62 0
-63 -45 0
-63 -45 0
45 63 0
-62 -63 -64 0
62 63 -64 0
-62 63 64 0
62 -63 64 0
-65 61 0
-65 64 0
-61 -64 65 0
66 -53 0
66 65 0
53 -65 -66 0
67 -43 0
67 66 0
43 -66 -67 0
18 55 -8 39 25 -52 58 10 0
41 18 52 0
-15 24 -33 0
48 29 21 2 -24 0
-51 36 40 -13 0
5 -63 -57 -4 -67 14 0
-62 44 66 -21 -28 32 61 58 0
43 -61 0
-48 20 46 -6 -32 -25 49 0
-30 58 45 50 0
56 -42 -57 0
-27 19 39 55 -40 -36 0
54 -18 7 26 -32 -3 11 4 46 -37 0
21 30 46 39 44 64 23 -29 0
52 11 0
-20 -11 35 32 -26 -29 21 55 37 0
-66 54 -44 0
-36 25 -1 37 5 -62 50 54 67 -6 0
-45 11 67 -36 -19 -34 10 39 -17 -54 0
-3 56 0
21 16 4 -51 0
-22 -15 23 62 -39 -6 -49 34 35 0
-25 61 55 5 -8 40 -63 0
-12 -31 0
46 57 -2 -23 -11 65 58 61 0
40 -7 -58 26 13 -62 18 9 -64 -66 0
26 14 0
23 63 0
15 -31 -22 27 -2 -6 32 -26 0
19 6 -54 0
-55 63 0
67 0
